projected/problems_b25_r0_d7_m100_s666/_DIMACS/b25_d7_r0_s666_009.cnf
p cnf 180 251 25
c p show 1 2 3 4 5 6 7 8 9 10 11 12 13 14 15 16 17 18 19 20 21 22 23 24 25
-51 -23 0
-51 -9 0
-52 -12 0
-53 52 0
-53 51 0
-54 -12 0
-54 -5 0
-55 9 0
-55 -18 0
-56 55 0
-56 54 0
-57 56 53 0
-58 18 0
-58 -12 0
-59 12 0
-59 -18 0
-60 59 58 0
-61 16 0
-61 -21 0
-62 61 60 0
-63 21 -18 0
-64 -20 0
-64 -17 0
-65 64 63 0
-66 65 62 0
-67 66 57 0
-68 -1 0
-68 -25 0
-69 -1 12 0
-70 69 68 0
-71 -24 -16 0
-72 -13 -19 0
-73 72 0
-73 71 0
-74 73 0
-74 70 0
-75 -15 0
-75 22 0
-76 -22 0
-76 15 0
-78 76 75 0
-79 6 0
-79 -8 0
-80 79 0
-80 78 0
-81 24 -4 0
-82 4 -24 0
-84 82 0
-84 81 0
-85 18 0
-85 15 0
-86 85 84 0
-87 86 0
-87 80 0
-88 87 0
-88 74 0
-90 88 0
-90 67 0
-91 11 0
-91 -12 0
-92 -11 23 0
-93 92 0
-93 91 0
-94 -2 9 0
-96 22 15 0
-97 96 94 0
-98 97 93 0
-99 2 0
-99 -9 0
-100 -22 0
-100 -15 0
-102 100 0
-102 99 0
-103 -11 12 0
-104 11 0
-104 -23 0
-105 104 103 0
-106 105 102 0
-108 106 0
-108 98 0
-109 25 -2 0
-110 -21 0
-110 -14 0
-111 110 109 0
-112 16 8 0
-114 -11 0
-114 -16 0
-115 114 0
-115 112 0
-116 115 0
-116 111 0
-117 116 108 0
-118 4 -16 0
-120 13 -21 0
-121 120 118 0
-122 2 0
-122 22 0
-123 -22 0
-123 -2 0
-124 123 122 0
-125 -22 0
-125 -1 0
-126 125 124 0
-127 126 121 0
-128 -8 20 0
-129 -7 0
-129 1 0
-130 129 0
-130 128 0
-131 -8 0
-131 25 0
-132 -17 -7 0
-133 132 131 0
-134 133 130 0
-135 134 127 0
-136 135 117 0
-137 136 0
-137 90 0
-138 -25 0
-138 -13 0
-139 -10 0
-139 17 0
-140 139 138 0
-141 -5 0
-141 -6 0
-142 23 -21 0
-143 142 141 0
-144 143 140 0
-145 23 1 0
-146 -2 -9 0
-147 146 145 0
-148 11 0
-148 9 0
-149 13 0
-149 -9 0
-150 149 148 0
-151 150 0
-151 147 0
-152 151 144 0
-153 14 0
-153 20 0
-154 -3 0
-154 -12 0
-155 154 153 0
-156 3 0
-156 18 0
-157 21 -6 0
-158 157 156 0
-159 -21 0
-159 6 0
-160 -3 -18 0
-161 160 159 0
-162 161 0
-162 158 0
-163 162 0
-163 155 0
-164 22 21 0
-165 11 0
-165 19 0
-166 165 0
-166 164 0
-167 -23 0
-167 -13 0
-168 10 -4 0
-169 168 0
-169 167 0
-170 169 166 0
-171 170 0
-171 163 0
-172 171 152 0
-173 11 0
-173 -22 0
-174 -20 5 0
-175 174 0
-175 173 0
-176 2 0
-176 16 0
-177 176 160 0
-178 177 0
-178 175 0
-179 10 0
-179 -19 0
-180 -20 -10 0
-26 180 0
-26 179 0
-77 10 0
-77 14 0
-83 -4 0
-83 -13 0
-89 83 77 0
-95 89 26 0
-101 -10 -14 0
-107 4 13 0
-113 107 0
-113 101 0
-119 -10 19 0
-27 20 0
-27 10 0
-28 27 119 0
-29 28 113 0
-30 29 0
-30 95 0
-31 30 178 0
-32 10 -18 0
-33 -22 0
-33 25 0
-34 -25 0
-34 22 0
-35 34 33 0
-36 35 0
-36 32 0
-37 7 3 0
-38 -17 -1 0
-39 38 37 0
-40 39 36 0
-41 18 -25 0
-42 -25 0
-42 18 0
-43 42 0
-43 41 0
-44 19 0
-44 13 0
-45 16 -14 0
-46 45 0
-46 44 0
-47 46 43 0
-48 47 40 0
-49 48 0
-49 31 0
-50 49 0
-50 172 0
50 137 0
-99 -94 0
-96 -100 0
-100 -96 0
-102 -97 0
-91 -103 0
-92 -104 0
-93 -105 0
-157 -159 0
-159 -157 0
-160 -156 0
-156 -160 0
-77 -101 0
-101 -77 0
-83 -107 0
-107 -83 0
-113 -89 0
-179 -119 0
-180 -27 0
-26 -28 0
