projected/problems_b25_r0_d7_m100_s666/b25_d7_r0_s666_009.smt2
(set-logic QF_UF)
(declare-fun A0 () Bool)
(declare-fun A1 () Bool)
(declare-fun A2 () Bool)
(declare-fun A3 () Bool)
(declare-fun A4 () Bool)
(declare-fun A5 () Bool)
(declare-fun A6 () Bool)
(declare-fun A7 () Bool)
(declare-fun A8 () Bool)
(declare-fun A9 () Bool)
(declare-fun A10 () Bool)
(declare-fun A11 () Bool)
(declare-fun A12 () Bool)
(declare-fun A13 () Bool)
(declare-fun A14 () Bool)
(declare-fun A15 () Bool)
(declare-fun A16 () Bool)
(declare-fun A17 () Bool)
(declare-fun A18 () Bool)
(declare-fun A19 () Bool)
(declare-fun A20 () Bool)
(declare-fun A21 () Bool)
(declare-fun A22 () Bool)
(declare-fun A23 () Bool)
(declare-fun A24 () Bool)
(assert (let ((.def_0 (not A8))) (let ((.def_1 (not A22))) (let ((.def_2 (and .def_1 .def_0))) (let ((.def_3 (not A11))) (let ((.def_4 (and .def_3 .def_3))) (let ((.def_5 (and .def_4 .def_2))) (let ((.def_6 (not .def_5))) (let ((.def_7 (or A11 A4))) (let ((.def_8 (or .def_0 A17))) (let ((.def_9 (or .def_8 .def_7))) (let ((.def_10 (and .def_9 .def_6))) (let ((.def_11 (not .def_10))) (let ((.def_12 (= A11 A17))) (let ((.def_13 (not A20))) (let ((.def_14 (and A15 .def_13))) (let ((.def_15 (not .def_14))) (let ((.def_16 (and .def_15 .def_12))) (let ((.def_17 (not .def_16))) (let ((.def_18 (and .def_13 A17))) (let ((.def_19 (or A19 A16))) (let ((.def_20 (and .def_19 .def_18))) (let ((.def_21 (not .def_20))) (let ((.def_22 (or .def_21 .def_17))) (let ((.def_23 (or .def_22 .def_11))) (let ((.def_24 (not .def_23))) (let ((.def_25 (not A24))) (let ((.def_26 (not A0))) (let ((.def_27 (and .def_26 .def_25))) (let ((.def_28 (and A0 .def_3))) (let ((.def_29 (not .def_28))) (let ((.def_30 (or .def_29 .def_27))) (let ((.def_31 (not .def_30))) (let ((.def_32 (and A23 A15))) (let ((.def_33 (and A12 A18))) (let ((.def_34 (or .def_33 .def_32))) (let ((.def_35 (or .def_34 .def_31))) (let ((.def_36 (not .def_35))) (let ((.def_37 (not A14))) (let ((.def_38 (not A21))) (let ((.def_39 (= .def_38 .def_37))) (let ((.def_40 (not .def_39))) (let ((.def_41 (not A7))) (let ((.def_42 (and A5 .def_41))) (let ((.def_43 (and .def_42 .def_40))) (let ((.def_44 (not A23))) (let ((.def_45 (not A3))) (let ((.def_46 (= .def_45 .def_44))) (let ((.def_47 (not .def_46))) (let ((.def_48 (not A17))) (let ((.def_49 (or .def_48 .def_37))) (let ((.def_50 (and .def_49 .def_47))) (let ((.def_51 (not .def_50))) (let ((.def_52 (and .def_51 .def_43))) (let ((.def_53 (and .def_52 .def_36))) (let ((.def_54 (not .def_53))) (let ((.def_55 (or .def_54 .def_24))) (let ((.def_56 (and A1 .def_0))) (let ((.def_57 (or A21 A14))) (let ((.def_58 (not .def_57))) (let ((.def_59 (and .def_58 .def_56))) (let ((.def_60 (and A10 .def_3))) (let ((.def_61 (not A10))) (let ((.def_62 (or .def_61 A22))) (let ((.def_63 (and .def_62 .def_60))) (let ((.def_64 (= .def_63 .def_59))) (let ((.def_65 (not .def_64))) (let ((.def_66 (not A1))) (let ((.def_67 (or A24 .def_66))) (let ((.def_68 (not .def_67))) (let ((.def_69 (not A13))) (let ((.def_70 (and .def_13 .def_69))) (let ((.def_71 (not .def_70))) (let ((.def_72 (and .def_71 .def_68))) (let ((.def_73 (not .def_72))) (let ((.def_74 (or A15 A7))) (let ((.def_75 (not .def_74))) (let ((.def_76 (not A15))) (let ((.def_77 (and .def_61 .def_76))) (let ((.def_78 (not .def_77))) (let ((.def_79 (or .def_78 .def_75))) (let ((.def_80 (not .def_79))) (let ((.def_81 (and .def_80 .def_73))) (let ((.def_82 (not .def_81))) (let ((.def_83 (and .def_82 .def_65))) (let ((.def_84 (or A3 .def_76))) (let ((.def_85 (not .def_84))) (let ((.def_86 (or A12 .def_13))) (let ((.def_87 (not .def_86))) (let ((.def_88 (and .def_87 .def_85))) (let ((.def_89 (not .def_88))) (let ((.def_90 (= .def_38 A1))) (let ((.def_91 (not .def_90))) (let ((.def_92 (and .def_38 .def_26))) (let ((.def_93 (or .def_92 .def_91))) (let ((.def_94 (or .def_93 .def_89))) (let ((.def_95 (not .def_94))) (let ((.def_96 (not A19))) (let ((.def_97 (and A7 .def_96))) (let ((.def_98 (not .def_97))) (let ((.def_99 (not A6))) (let ((.def_100 (and .def_99 A0))) (let ((.def_101 (and .def_100 .def_98))) (let ((.def_102 (not .def_101))) (let ((.def_103 (and .def_41 A24))) (let ((.def_104 (not A16))) (let ((.def_105 (or .def_104 .def_99))) (let ((.def_106 (or .def_105 .def_103))) (let ((.def_107 (not .def_106))) (let ((.def_108 (and .def_107 .def_102))) (let ((.def_109 (and .def_108 .def_95))) (let ((.def_110 (and .def_109 .def_83))) (let ((.def_111 (or .def_110 .def_55))) (let ((.def_112 (or A24 A12))) (let ((.def_113 (not A9))) (let ((.def_114 (and .def_113 A16))) (let ((.def_115 (not .def_114))) (let ((.def_116 (and .def_115 .def_112))) (let ((.def_117 (or A4 A5))) (let ((.def_118 (and .def_1 A20))) (let ((.def_119 (and .def_118 .def_117))) (let ((.def_120 (and .def_119 .def_116))) (let ((.def_121 (and .def_1 .def_26))) (let ((.def_122 (not .def_121))) (let ((.def_123 (and A1 A8))) (let ((.def_124 (not .def_123))) (let ((.def_125 (or .def_124 .def_122))) (let ((.def_126 (or .def_61 .def_0))) (let ((.def_127 (not A12))) (let ((.def_128 (or .def_127 A8))) (let ((.def_129 (and .def_128 .def_126))) (let ((.def_130 (not .def_129))) (let ((.def_131 (and .def_130 .def_125))) (let ((.def_132 (not .def_131))) (let ((.def_133 (and .def_132 .def_120))) (let ((.def_134 (and A13 A19))) (let ((.def_135 (or A2 A11))) (let ((.def_136 (not .def_135))) (let ((.def_137 (or .def_136 .def_134))) (let ((.def_138 (not .def_137))) (let ((.def_139 (not A5))) (let ((.def_140 (or A20 .def_139))) (let ((.def_141 (not .def_140))) (let ((.def_142 (not A2))) (let ((.def_143 (or .def_142 .def_48))) (let ((.def_144 (not .def_143))) (let ((.def_145 (= .def_144 .def_141))) (let ((.def_146 (not .def_145))) (let ((.def_147 (or .def_146 .def_138))) (let ((.def_148 (not .def_147))) (let ((.def_149 (and .def_38 .def_13))) (let ((.def_150 (and A10 A18))) (let ((.def_151 (not .def_150))) (let ((.def_152 (or .def_151 .def_149))) (let ((.def_153 (and .def_1 .def_127))) (let ((.def_154 (not .def_153))) (let ((.def_155 (and .def_113 A3))) (let ((.def_156 (or .def_155 .def_154))) (let ((.def_157 (and .def_156 .def_152))) (let ((.def_158 (not .def_157))) (let ((.def_159 (and .def_158 .def_148))) (let ((.def_160 (not .def_159))) (let ((.def_161 (and .def_160 .def_133))) (let ((.def_162 (not .def_161))) (let ((.def_163 (or .def_61 A21))) (let ((.def_164 (not .def_163))) (let ((.def_165 (or .def_96 A4))) (let ((.def_166 (and .def_165 .def_164))) (let ((.def_167 (not .def_166))) (let ((.def_168 (and A2 A17))) (let ((.def_169 (not .def_168))) (let ((.def_170 (and A1 A15))) (let ((.def_171 (or .def_170 .def_169))) (let ((.def_172 (not .def_171))) (let ((.def_173 (or .def_172 .def_167))) (let ((.def_174 (and A9 A13))) (let ((.def_175 (not .def_174))) (let ((.def_176 (and .def_45 .def_127))) (let ((.def_177 (not .def_176))) (let ((.def_178 (and .def_177 .def_175))) (let ((.def_179 (not A18))) (let ((.def_180 (and A9 .def_179))) (let ((.def_181 (or .def_96 .def_113))) (let ((.def_182 (and .def_181 .def_180))) (let ((.def_183 (= .def_182 .def_178))) (let ((.def_184 (not .def_183))) (let ((.def_185 (and .def_184 .def_173))) (let ((.def_186 (and .def_113 A17))) (let ((.def_187 (= .def_25 .def_38))) (let ((.def_188 (or .def_187 .def_186))) (let ((.def_189 (or A6 A2))) (let ((.def_190 (not .def_189))) (let ((.def_191 (or .def_104 .def_26))) (let ((.def_192 (not .def_191))) (let ((.def_193 (and .def_192 .def_190))) (let ((.def_194 (and .def_193 .def_188))) (let ((.def_195 (and .def_48 A24))) (let ((.def_196 (or A24 .def_48))) (let ((.def_197 (or .def_196 .def_195))) (let ((.def_198 (and A18 A12))) (let ((.def_199 (and .def_76 A13))) (let ((.def_200 (not .def_199))) (let ((.def_201 (and .def_200 .def_198))) (let ((.def_202 (not .def_201))) (let ((.def_203 (and .def_202 .def_197))) (let ((.def_204 (and .def_203 .def_194))) (let ((.def_205 (or .def_204 .def_185))) (let ((.def_206 (not .def_205))) (let ((.def_207 (and .def_206 .def_162))) (let ((.def_208 (not .def_207))) (let ((.def_209 (and .def_208 .def_111))) (let ((.def_210 (not .def_209))) .def_210))))))))))))))))))))))))))))))))))))))))))))))))))))))))))))))))))))))))))))))))))))))))))))))))))))))))))))))))))))))))))))))))))))))))))))))))))))))))))))))))))))))))))))))))))))))))))))))))))))))))))))))))))))
(check-sat)
